
Gurobi 8.1.1 (win64) logging started 11/27/19 04:38:14

Changed value of parameter LogFile to logs/miss/rlt/miss-07-15-0.log
   Prev: gurobi.log  Default: 
Changed value of parameter LogToConsole to 0
   Prev: 1  Min: 0  Max: 1  Default: 1
Changed value of parameter TimeLimit to 3600.0
   Prev: 1e+100  Min: 0.0  Max: 1e+100  Default: 1e+100
Optimize a model with 91898 rows, 30876 columns and 217621 nonzeros
Variable types: 0 continuous, 30876 integer (248 binary)
Coefficient statistics:
  Matrix range     [1e+00, 1e+00]
  Objective range  [1e+00, 1e+00]
  Bounds range     [1e+00, 1e+00]
  RHS range        [1e+00, 1e+00]
Presolve time: 1.00s
Presolved: 91898 rows, 30876 columns, 217621 nonzeros
Variable types: 0 continuous, 30876 integer (30876 binary)
Found heuristic solution: objective 10.0000000
Found heuristic solution: objective 9.0000000

Root simplex log...

Iteration    Objective       Primal Inf.    Dual Inf.      Time
    5567    1.0690912e+00   1.313336e+02   0.000000e+00      5s
   10771    1.1609990e+00   6.455994e+02   0.000000e+00     10s
   15065    1.1639726e+00   0.000000e+00   0.000000e+00     12s

Root relaxation: objective 1.163973e+00, 15065 iterations, 10.60 seconds

    Nodes    |    Current Node    |     Objective Bounds      |     Work
 Expl Unexpl |  Obj  Depth IntInf | Incumbent    BestBd   Gap | It/Node Time

     0     0    1.16397    0 3286    9.00000    1.16397  87.1%     -   16s
H    0     0                       7.0000000    1.16397  83.4%     -   17s
     0     0    2.00000    0 2225    7.00000    2.00000  71.4%     -   38s
     0     0    2.00000    0 1809    7.00000    2.00000  71.4%     -   70s
     0     0    2.00000    0 1778    7.00000    2.00000  71.4%     -   90s
     0     0    2.00000    0 1757    7.00000    2.00000  71.4%     -  116s
     0     0    2.00000    0 1552    7.00000    2.00000  71.4%     -  214s
     0     0    2.00000    0 1105    7.00000    2.00000  71.4%     -  277s
     0     0    2.00000    0 1095    7.00000    2.00000  71.4%     -  296s
     0     0    2.00000    0  993    7.00000    2.00000  71.4%     -  323s
     0     0    2.00000    0  954    7.00000    2.00000  71.4%     -  358s
     0     0    2.00000    0 1106    7.00000    2.00000  71.4%     -  384s
     0     0    2.00000    0 1019    7.00000    2.00000  71.4%     -  428s
     0     0    2.00000    0 1340    7.00000    2.00000  71.4%     -  515s
     0     0    2.00000    0 1296    7.00000    2.00000  71.4%     -  559s
     0     0    2.00000    0  786    7.00000    2.00000  71.4%     -  599s
     0     0    2.00000    0  763    7.00000    2.00000  71.4%     -  668s
     0     0    2.00000    0  739    7.00000    2.00000  71.4%     -  692s
     0     0    2.00000    0  739    7.00000    2.00000  71.4%     -  713s
     0     2    2.00000    0  739    7.00000    2.00000  71.4%     - 1576s
     1     4    2.00000    1  717    7.00000    2.00000  71.4% 21499 1591s
     3     6    2.00000    2  678    7.00000    2.00000  71.4% 13214 1600s
     5     8    2.00000    3  905    7.00000    2.00000  71.4%  9734 1608s
     7     8    2.00000    4  899    7.00000    2.00000  71.4%  7267 1611s
     9    10    2.00000    5 1109    7.00000    2.00000  71.4%  6101 1617s
    11    12    2.00000    6  995    7.00000    2.00000  71.4%  5158 1620s
    13    14    2.00000    7  784    7.00000    2.00000  71.4%  4543 1625s
    17    18    2.00000    9 1323    7.00000    2.00000  71.4%  3812 1634s
    20    21    2.00000   10 1109    7.00000    2.00000  71.4%  3379 1642s
    24    25    2.00293   12 2133    7.00000    2.00000  71.4%  3089 1699s
    32    33    2.01453   16 2082    7.00000    2.00000  71.4%  2511 1720s
    52    53    2.07405   29 1375    7.00000    2.00000  71.4%  1907 1862s
    65    66    2.21359   36 1105    7.00000    2.00000  71.4%  1720 1884s
    87    88    2.68362   51  825    7.00000    2.00000  71.4%  1554 2000s
    89    90    2.72138   52  775    7.00000    2.00000  71.4%  1537 2022s
   120   118    5.05504   75  794    7.00000    2.00000  71.4%  1316 2047s
   147   146    2.22874    4 3175    7.00000    2.00000  71.4%  1274 2063s
   170   167    2.24725    7 3030    7.00000    2.00000  71.4%  1200 2078s
   193   190    2.26111   10 2955    7.00000    2.00000  71.4%  1132 2184s
   213   207    2.27541   13 2960    7.00000    2.00000  71.4%  1067 2211s
   256   250    2.31722   20 2788    7.00000    2.00000  71.4%   972 2226s
   268   259    2.35885   27 2572    7.00000    2.00000  71.4%   967 2242s
   281   272    2.40475   33 2408    7.00000    2.00000  71.4%   958 2259s
   295   286    2.46627   40 2178    7.00000    2.00000  71.4%   951 2277s
   313   304    2.62385   52 1873    7.00000    2.00000  71.4%   943 2298s
   343   334    2.99897   74 1337    7.00000    2.00000  71.4%   940 2321s
   404   393    3.98754  115  763    7.00000    2.00000  71.4%   872 2481s
   464   452    2.21732    5 3107    7.00000    2.00000  71.4%   827 2504s
   517   491    2.25212   11 2972    7.00000    2.00000  71.4%   784 2531s
   544   502    2.28678   16 2780    7.00000    2.00000  71.4%   792 2550s
   555   510    2.31406   21 2601    7.00000    2.00000  71.4%   804 2571s
   574   529    2.36498   32 2459    7.00000    2.00000  71.4%   806 2593s
   596   551    2.50833   46 2056    7.00000    2.00000  71.4%   810 2616s
   625   581    2.75836   66 1658    7.00000    2.00000  71.4%   805 2640s
   666   622    3.24225   92 1124    7.00000    2.00000  71.4%   795 2843s
   733   688    4.10262  117  739    7.00000    2.00000  71.4%   748 2866s
   735   689    4.31607  110 3286    7.00000    2.00000  71.4%   746 2895s

Cutting planes:
  Gomory: 1
  Zero half: 7

Explored 735 nodes (977642 simplex iterations) in 3600.08 seconds
Thread count was 4 (of 4 available processors)

Solution count 3: 7 9 10 

Time limit reached
Best objective 7.000000000000e+00, best bound 2.000000000000e+00, gap 71.4286%
